\ This file has been generated by DOcplex
\ ENCODING=ISO-8859-1
\Problem name: BMW

Minimize
 obj: 3 x_0_1#4 + 3 x_1_1#5 + 3 x_0_4#10 + 3 x_1_4#11
Subject To
 c1: z_(1,_2)_0#28 + z_(1,_2)_1#29 + z_(1,_2)_2#30 + z_(1,_2)_3#31 >= 1
 c2: z_(1,_2)_0#28 + z_(1,_2)_1#29 + z_(1,_2)_2#30 + z_(1,_2)_3#31 <= 4
 c3: z_(1,_2)_0#28 + z_(1,_2)_1#29 + z_(1,_2)_2#30 + z_(1,_2)_3#31 >= 1
 c4: z_(1,_2)_0#28 + z_(1,_2)_1#29 + z_(1,_2)_2#30 + z_(1,_2)_3#31 <= 4
 c5: z_(1,_2)_0#28 + z_(1,_2)_1#29 + z_(1,_2)_2#30 + z_(1,_2)_3#31 >= 1
 c6: z_(1,_2)_0#28 + z_(1,_2)_1#29 + z_(1,_2)_2#30 + z_(1,_2)_3#31 <= 4
 c7: z_(1,_2)_0#28 + z_(1,_2)_1#29 + z_(1,_2)_2#30 + z_(1,_2)_3#31 >= 1
 c8: z_(1,_2)_0#28 + z_(1,_2)_1#29 + z_(1,_2)_2#30 + z_(1,_2)_3#31 <= 4
 c9: z_(1,_2)_0#28 + z_(1,_2)_1#29 + z_(1,_2)_2#30 + z_(1,_2)_3#31 >= 1
 c10: z_(1,_2)_0#28 + z_(1,_2)_1#29 + z_(1,_2)_2#30 + z_(1,_2)_3#31 <= 4
 c11: z_(1,_2)_0#28 + z_(1,_2)_1#29 + z_(1,_2)_2#30 + z_(1,_2)_3#31 >= 1
 c12: z_(1,_2)_0#28 + z_(1,_2)_1#29 + z_(1,_2)_2#30 + z_(1,_2)_3#31 <= 4
 c13: z_(1,_2)_0#28 + z_(1,_2)_1#29 + z_(1,_2)_2#30 + z_(1,_2)_3#31 - x_0_1#4
      - x_1_1#5 - x_0_4#10 - x_1_4#11 = 0
 c14: z_(1,_2)_0#28 + z_(1,_2)_1#29 + z_(1,_2)_2#30 + z_(1,_2)_3#31 - x_0_1#4
      - x_1_1#5 - x_0_4#10 - x_1_4#11 = 0
 c15: z_(1,_2)_0#28 + z_(1,_2)_1#29 + z_(1,_2)_2#30 + z_(1,_2)_3#31 - x_0_1#4
      - x_1_1#5 - x_0_4#10 - x_1_4#11 = 0
 c16: z_(1,_2)_0#28 + z_(1,_2)_1#29 + z_(1,_2)_2#30 + z_(1,_2)_3#31 - x_0_1#4
      - x_1_1#5 - x_0_4#10 - x_1_4#11 = 0
 c17: z_(1,_2)_0#28 + z_(1,_2)_1#29 + z_(1,_2)_2#30 + z_(1,_2)_3#31 - x_0_1#4
      - x_1_1#5 - x_0_4#10 - x_1_4#11 = 0
 c18: z_(1,_2)_0#28 + z_(1,_2)_1#29 + z_(1,_2)_2#30 + z_(1,_2)_3#31 - x_0_1#4
      - x_1_1#5 - x_0_4#10 - x_1_4#11 = 0

Bounds
 0 <= x_0_1 <= 1
 0 <= x_1_1 <= 1
 0 <= x_0_1#2 <= 1
 0 <= x_1_1#3 <= 1
 0 <= x_0_1#4 <= 1
 0 <= x_1_1#5 <= 1
 0 <= x_0_4 <= 1
 0 <= x_1_4 <= 1
 0 <= x_0_4#8 <= 1
 0 <= x_1_4#9 <= 1
 0 <= x_0_4#10 <= 1
 0 <= x_1_4#11 <= 1
 0 <= z_(1,_2)_0 <= 1
 0 <= z_(1,_2)_1 <= 1
 0 <= z_(1,_2)_2 <= 1
 0 <= z_(1,_2)_3 <= 1
 0 <= z_(1,_3)_0 <= 1
 0 <= z_(1,_3)_1 <= 1
 0 <= z_(1,_3)_2 <= 1
 0 <= z_(1,_3)_3 <= 1
 0 <= z_(1,_2)_0#20 <= 1
 0 <= z_(1,_2)_1#21 <= 1
 0 <= z_(1,_2)_2#22 <= 1
 0 <= z_(1,_2)_3#23 <= 1
 0 <= z_(1,_3)_0#24 <= 1
 0 <= z_(1,_3)_1#25 <= 1
 0 <= z_(1,_3)_2#26 <= 1
 0 <= z_(1,_3)_3#27 <= 1
 0 <= z_(1,_2)_0#28 <= 1
 0 <= z_(1,_2)_1#29 <= 1
 0 <= z_(1,_2)_2#30 <= 1
 0 <= z_(1,_2)_3#31 <= 1
 0 <= z_(1,_3)_0#32 <= 1
 0 <= z_(1,_3)_1#33 <= 1
 0 <= z_(1,_3)_2#34 <= 1
 0 <= z_(1,_3)_3#35 <= 1

Binaries
 x_0_1 x_1_1 x_0_1#2 x_1_1#3 x_0_1#4 x_1_1#5 x_0_4 x_1_4 x_0_4#8 x_1_4#9
 x_0_4#10 x_1_4#11 z_(1,_2)_0 z_(1,_2)_1 z_(1,_2)_2 z_(1,_2)_3 z_(1,_3)_0
 z_(1,_3)_1 z_(1,_3)_2 z_(1,_3)_3 z_(1,_2)_0#20 z_(1,_2)_1#21 z_(1,_2)_2#22
 z_(1,_2)_3#23 z_(1,_3)_0#24 z_(1,_3)_1#25 z_(1,_3)_2#26 z_(1,_3)_3#27
 z_(1,_2)_0#28 z_(1,_2)_1#29 z_(1,_2)_2#30 z_(1,_2)_3#31 z_(1,_3)_0#32
 z_(1,_3)_1#33 z_(1,_3)_2#34 z_(1,_3)_3#35
End
